p cnf 240 429
4  -1  -2  0
7  -4  5  0
16  13  14  0
-19  -16  -17  0
22  -19  20  0
-28  25  26  0
31  28  29  0
34  31  -32  0
37  -34  -35  0
40  37  -38  0
46  -43  -44  0
49  46  -47  0
-52  -49  -50  0
55  -52  -53  0
-58  -55  -56  0
-64  61  -62  0
-67  64  65  0
70  67  -68  0
73  70  71  0
-76  -73  74  0
79  -76  -77  0
82  -79  -80  0
-85  82  83  0
88  85  86  0
-91  -88  -89  0
97  94  95  0
100  -97  98  0
-103  -100  101  0
106  103  104  0
109  -106  -107  0
112  109  110  0
-121  118  119  0
133  130  -131  0
139  -136  -137  0
142  -139  -140  0
145  142  143  0
-148  -145  146  0
-154  151  152  0
157  154  155  0
160  -157  158  0
-163  160  161  0
-166  163  -164  0
172  169  -170  0
-178  -175  -176  0
181  -178  179  0
-187  -184  -185  0
-190  -187  188  0
-193  190  191  0
196  -193  194  0
-199  -196  197  0
202  199  -200  0
205  -202  203  0
-211  208  209  0
-217  214  215  0
220  217  -218  0
223  220  221  0
-226  223  -224  0
229  -226  227  0
-5  -4  -2  0
-5  -1  -2  0
-5  -2  3  0
8  7  -5  0
-8  7  -4  0
11  -10  -7  0
-11  8  9  0
-14  -13  -11  0
14  13  -10  0
14  10  -11  0
14  11  12  0
17  -16  14  0
17  -16  -13  0
17  -13  -14  0
17  14  -15  0
-20  19  17  0
-20  -19  -16  0
20  -17  18  0
23  22  -20  0
23  -22  -19  0
26  -25  23  0
26  22  -23  0
26  23  -24  0
-29  -28  -26  0
29  -28  -25  0
-29  25  -26  0
-29  -26  -27  0
-32  31  -29  0
32  31  -28  0
-32  28  -29  0
-32  -29  30  0
-35  -34  31  0
-35  31  32  0
35  -32  -33  0
38  -37  34  0
-38  -35  -36  0
-41  -40  38  0
-41  -37  -38  0
-41  -38  39  0
44  43  41  0
44  -43  40  0
-44  40  -41  0
-44  41  42  0
-47  46  44  0
47  46  -43  0
-47  43  44  0
-47  -44  -45  0
-50  49  -47  0
50  46  47  0
-50  -47  48  0
-53  -52  50  0
53  -50  -51  0
-56  55  -52  0
56  52  53  0
59  58  56  0
-59  -55  56  0
59  56  57  0
-62  61  -59  0
-62  61  -58  0
62  58  59  0
-65  64  61  0
-65  62  -63  0
68  -67  -65  0
-68  67  -64  0
68  -64  -65  0
-68  65  -66  0
71  70  67  0
-71  -67  -68  0
74  -70  71  0
-74  -71  -72  0
-77  76  -74  0
77  73  -74  0
77  74  75  0
80  -79  -76  0
-80  -76  77  0
83  -82  80  0
-86  -82  83  0
-86  -83  -84  0
89  -88  86  0
-89  88  -85  0
-89  85  -86  0
-89  -86  -87  0
92  91  88  0
92  88  89  0
92  89  -90  0
-95  -94  91  0
95  -92  -93  0
-98  -97  -94  0
-98  -94  95  0
98  -95  -96  0
-101  -97  -98  0
101  -98  -99  0
-104  100  101  0
107  106  103  0
107  103  -104  0
-107  -104  105  0
-110  -109  107  0
-110  109  -106  0
-110  -106  107  0
110  107  -108  0
113  -112  -110  0
113  -112  109  0
113  109  -110  0
-113  110  -111  0
116  -115  113  0
116  115  -112  0
-116  -113  -114  0
-119  -118  -116  0
119  -118  115  0
119  -115  116  0
-122  -121  -119  0
122  -118  119  0
122  -119  -120  0
125  124  122  0
125  124  121  0
-128  -127  125  0
128  127  124  0
-131  -130  128  0
131  -130  127  0
-131  -127  -128  0
134  133  131  0
134  -130  -131  0
134  131  132  0
-137  136  134  0
-137  136  -133  0
137  134  135  0
-140  139  137  0
140  -139  136  0
-140  136  137  0
-140  -137  138  0
143  -142  -139  0
143  -139  -140  0
-143  -140  -141  0
-146  -145  143  0
146  145  142  0
149  -148  -146  0
-149  148  145  0
-149  -145  -146  0
149  146  147  0
-152  -151  148  0
155  -154  152  0
155  151  -152  0
-155  152  -153  0
-158  -157  155  0
158  154  155  0
-158  -155  156  0
161  -160  -158  0
161  -160  -157  0
-161  158  -159  0
-164  163  -161  0
164  -160  -161  0
164  161  162  0
-167  -166  -164  0
-167  -166  -163  0
-167  164  -165  0
170  169  -167  0
170  169  166  0
-170  166  167  0
170  -167  -168  0
-173  172  -170  0
173  169  170  0
173  170  -171  0
176  175  -172  0
-176  172  173  0
-176  173  -174  0
-179  -178  176  0
-179  -178  -175  0
-179  -175  -176  0
-179  -176  177  0
182  181  179  0
182  178  -179  0
185  184  -182  0
-185  -184  181  0
-185  181  182  0
-185  182  183  0
188  -187  -184  0
188  184  -185  0
188  185  -186  0
-191  187  -188  0
-191  188  -189  0
-194  193  -191  0
-194  191  192  0
197  196  -194  0
197  196  193  0
-197  -194  -195  0
-200  -199  196  0
-200  -196  197  0
-200  197  -198  0
203  -202  -200  0
203  202  -199  0
-203  -199  200  0
-203  -200  -201  0
-206  -205  -202  0
-206  -202  -203  0
206  -203  204  0
209  -208  206  0
209  205  206  0
209  -206  -207  0
-212  208  209  0
-212  209  210  0
-215  -214  212  0
-215  214  211  0
-215  -211  212  0
-215  -212  213  0
218  -217  -215  0
-218  217  -214  0
218  -214  215  0
-218  215  216  0
221  220  -217  0
224  -223  -221  0
224  223  -220  0
224  -221  222  0
-227  -226  -224  0
227  223  224  0
-230  -229  227  0
230  -226  227  0
-230  227  228  0
-233  232  230  0
236  235  233  0
-239  -238  -236  0
239  238  235  0
239  235  -236  0
239  -236  237  0
6  -5  -3  0
6  5  -2  0
6  2  3  0
9  -8  -6  0
9  -5  6  0
-12  11  -8  0
15  -14  -12  0
18  -17  14  0
18  14  -15  0
21  -20  17  0
21  -17  18  0
24  -23  -20  0
-24  20  -21  0
-27  26  -24  0
-27  -26  23  0
-27  23  -24  0
30  -29  -27  0
30  26  -27  0
-33  32  -29  0
-33  -29  -30  0
-36  35  33  0
-36  -32  33  0
39  -38  35  0
-42  -41  -39  0
-42  38  39  0
45  44  41  0
48  -47  45  0
-48  47  -44  0
-48  -44  45  0
-51  50  -48  0
-51  47  -48  0
54  -53  51  0
-54  -53  -50  0
54  50  51  0
-57  -56  -54  0
57  53  54  0
-60  56  -57  0
-63  62  59  0
66  -65  62  0
-66  -62  -63  0
69  -68  66  0
69  68  -65  0
69  -65  -66  0
-75  -74  -72  0
-75  71  -72  0
-78  -77  74  0
-84  -83  -81  0
-90  89  -86  0
-93  92  90  0
-93  89  -90  0
-96  95  -93  0
96  -92  -93  0
-99  -98  -96  0
-99  98  95  0
-99  -95  96  0
102  101  -99  0
-102  101  98  0
102  -98  -99  0
105  104  -101  0
105  101  102  0
-108  107  105  0
108  -107  104  0
108  104  -105  0
-111  110  108  0
111  110  107  0
114  113  -111  0
114  -113  -110  0
-114  -110  -111  0
-117  -116  114  0
-117  116  113  0
120  -116  -117  0
-123  -122  -120  0
123  -119  -120  0
-126  125  -122  0
129  -128  125  0
-132  -131  -128  0
-135  134  -132  0
135  134  131  0
-138  137  135  0
138  -134  135  0
-141  140  137  0
-141  137  138  0
144  143  -141  0
144  -140  141  0
-147  143  -144  0
-150  -146  -147  0
153  149  150  0
-156  155  153  0
-156  -155  -152  0
-159  158  155  0
-159  155  -156  0
-162  -161  -159  0
-162  161  158  0
-162  -158  -159  0
165  164  -162  0
-165  -161  -162  0
-168  -167  165  0
168  167  -164  0
174  -170  -171  0
-177  176  -174  0
-177  176  173  0
177  173  -174  0
180  179  177  0
180  179  176  0
-180  -176  -177  0
183  -182  -180  0
183  -182  -179  0
-186  185  -183  0
186  -182  -183  0
189  188  -186  0
-189  185  -186  0
-192  -191  189  0
192  188  -189  0
195  -194  -192  0
-195  191  192  0
-198  -197  -194  0
201  -200  -198  0
-201  -200  -197  0
-201  197  -198  0
204  203  -201  0
-204  203  -200  0
204  200  -201  0
-207  -206  -204  0
-207  -206  203  0
-210  -209  -207  0
-210  -209  206  0
-210  -206  -207  0
-213  212  210  0
-213  209  -210  0
216  212  213  0
219  -218  216  0
219  218  -215  0
219  -215  216  0
-222  221  219  0
-222  -221  -218  0
222  218  -219  0
-225  224  -222  0
225  -224  -221  0
-228  227  -224  0
-228  -224  225  0
231  230  -228  0
-231  -230  227  0
231  227  -228  0
234  -233  231  0
-237  236  233  0
-237  -233  -234  0
240  -239  237  0
-240  -239  -236  0
